Minimize
	value: tt

Subject to
tt + 1000 s_1_1 > 0.0
tt - t_1_1 - 1002.165143 s_1_1  + 2.165143 s_1_7  > -968.092500
tt + 1000 s_2_1 > 0.0
tt - t_2_1 - 1001.997125 s_2_1  + 1.997125 s_2_7  > -938.134667
tt + 1000 s_1_2 > 0.0
tt - t_1_2 - 1002.165143 s_1_2  + 2.165143 s_1_7  > -970.079100
tt + 1000 s_2_2 > 0.0
tt - t_2_2 - 1001.997125 s_2_2  + 1.997125 s_2_7  > -955.515789
tt + 1000 s_1_3 > 0.0
tt - t_1_3 - 1002.165143 s_1_3  + 2.165143 s_1_7  > -975.526500
tt + 1000 s_2_3 > 0.0
tt - t_2_3 - 1001.997125 s_2_3  + 1.997125 s_2_7  > -968.215711
tt + 1000 s_1_4 > 0.0
tt - t_1_4 - 1001.589809 s_1_4  + 0.794904 s_1_1  + 0.794904 s_1_2  > -995.418500
tt + 1000 s_2_4 > 0.0
tt - t_2_4 - 1001.962262 s_2_4  + 0.981131 s_2_1  + 0.981131 s_2_2  > -996.516556
tt + 1000 s_1_5 > 0.0
tt - t_1_5 - 1002.960047 s_1_5  + 0.794904 s_1_1  + 2.165143 s_1_7  > -986.694600
tt + 1000 s_2_5 > 0.0
tt - t_2_5 - 1002.978256 s_2_5  + 0.981131 s_2_1  + 1.997125 s_2_7  > -983.389289
tt + 1000 s_1_6 > 0.0
tt - t_1_6 - 1003.179618 s_1_6  + 0.794904 s_1_3  + 0.794904 s_1_5  + 0.794904 s_1_4  + 0.794904 s_1_2  > -995.932400
tt + 1000 s_2_6 > 0.0
tt - t_2_6 - 1003.924523 s_2_6  + 0.981131 s_2_3  + 0.981131 s_2_5  + 0.981131 s_2_4  + 0.981131 s_2_2  > -967.631600
tt + 1000 s_1_7 > 0.0
tt - t_1_7 - 1000.000000 s_1_7  > -983.595633
tt + 1000 s_2_7 > 0.0
tt - t_2_7 - 1000.000000 s_2_7  > -978.189900
s_1_1 + s_2_1 = 1
s_1_2 + s_2_2 = 1
s_1_3 + s_2_3 = 1
s_1_4 + s_2_4 = 1
s_1_5 + s_2_5 = 1
s_1_6 + s_2_6 = 1
s_1_7 + s_2_7 = 1
s_1_1 + s_1_2 + 1000 r_1_1_2 >= 2
- s_1_1 - s_1_2 - 1000 r_1_1_2 >= -1001
t_1_1 - t_1_2 - 1000.000000 u_1_1_2 - 2.165143 s_1_2  + 2.165143 s_1_7  + 2000.000000 r_1_1_2 > -970.079100
s_2_1 + s_2_2 + 1000 r_2_1_2 >= 2
- s_2_1 - s_2_2 - 1000 r_2_1_2 >= -1001
t_2_1 - t_2_2 - 1000.000000 u_2_1_2 - 1.997125 s_2_2  + 1.997125 s_2_7  + 2000.000000 r_2_1_2 > -955.515789
s_1_1 + s_1_3 + 1000 r_1_1_3 >= 2
- s_1_1 - s_1_3 - 1000 r_1_1_3 >= -1001
t_1_1 - t_1_3 - 1000.000000 u_1_1_3 - 2.165143 s_1_3  + 2.165143 s_1_7  + 2000.000000 r_1_1_3 > -975.526500
s_2_1 + s_2_3 + 1000 r_2_1_3 >= 2
- s_2_1 - s_2_3 - 1000 r_2_1_3 >= -1001
t_2_1 - t_2_3 - 1000.000000 u_2_1_3 - 1.997125 s_2_3  + 1.997125 s_2_7  + 2000.000000 r_2_1_3 > -968.215711
t_1_4 - t_1_1 - 1002.165143 s_1_1  + 2.165143 s_1_7  > -968.092500
t_1_4 - t_2_1 - 1001.997125 s_2_1  + 1.997125 s_2_7  > -938.134667
t_2_4 - t_1_1 - 1002.165143 s_1_1  + 2.165143 s_1_7  > -968.092500
t_2_4 - t_2_1 - 1001.997125 s_2_1  + 1.997125 s_2_7  > -938.134667
t_1_5 - t_1_1 - 1002.165143 s_1_1  + 2.165143 s_1_7  > -968.092500
t_1_5 - t_2_1 - 1001.997125 s_2_1  + 1.997125 s_2_7  > -938.134667
t_2_5 - t_1_1 - 1002.165143 s_1_1  + 2.165143 s_1_7  > -968.092500
t_2_5 - t_2_1 - 1001.997125 s_2_1  + 1.997125 s_2_7  > -938.134667
t_1_1 - t_1_7 - 1000.000000 s_1_7  > -983.595633
t_1_1 - t_2_7 - 1000.000000 s_2_7  > -978.189900
t_2_1 - t_1_7 - 1000.000000 s_1_7  > -983.595633
t_2_1 - t_2_7 - 1000.000000 s_2_7  > -978.189900
s_1_2 + s_1_1 + 1000 r_1_1_2 >= 2
- s_1_2 - s_1_1 - 1000 r_1_1_2 >= -1001
t_1_2 - t_1_1 + 1000.000000 u_1_1_2 - 2.165143 s_1_1  + 2.165143 s_1_7  + 2000.000000 r_1_1_2 > 31.907500
s_2_2 + s_2_1 + 1000 r_2_1_2 >= 2
- s_2_2 - s_2_1 - 1000 r_2_1_2 >= -1001
t_2_2 - t_2_1 + 1000.000000 u_2_1_2 - 1.997125 s_2_1  + 1.997125 s_2_7  + 2000.000000 r_2_1_2 > 61.865333
s_1_2 + s_1_3 + 1000 r_1_2_3 >= 2
- s_1_2 - s_1_3 - 1000 r_1_2_3 >= -1001
t_1_2 - t_1_3 - 1000.000000 u_1_2_3 - 2.165143 s_1_3  + 2.165143 s_1_7  + 2000.000000 r_1_2_3 > -975.526500
s_2_2 + s_2_3 + 1000 r_2_2_3 >= 2
- s_2_2 - s_2_3 - 1000 r_2_2_3 >= -1001
t_2_2 - t_2_3 - 1000.000000 u_2_2_3 - 1.997125 s_2_3  + 1.997125 s_2_7  + 2000.000000 r_2_2_3 > -968.215711
t_1_4 - t_1_2 - 1002.165143 s_1_2  + 2.165143 s_1_7  > -970.079100
t_1_4 - t_2_2 - 1001.997125 s_2_2  + 1.997125 s_2_7  > -955.515789
t_2_4 - t_1_2 - 1002.165143 s_1_2  + 2.165143 s_1_7  > -970.079100
t_2_4 - t_2_2 - 1001.997125 s_2_2  + 1.997125 s_2_7  > -955.515789
s_1_2 + s_1_5 + 1000 r_1_2_5 >= 2
- s_1_2 - s_1_5 - 1000 r_1_2_5 >= -1001
t_1_2 - t_1_5 - 1000.000000 u_1_2_5 - 2.960047 s_1_5  + 0.794904 s_1_1  + 2.165143 s_1_7  + 2000.000000 r_1_2_5 > -986.694600
s_2_2 + s_2_5 + 1000 r_2_2_5 >= 2
- s_2_2 - s_2_5 - 1000 r_2_2_5 >= -1001
t_2_2 - t_2_5 - 1000.000000 u_2_2_5 - 2.978256 s_2_5  + 0.981131 s_2_1  + 1.997125 s_2_7  + 2000.000000 r_2_2_5 > -983.389289
t_1_6 - t_1_2 - 1002.165143 s_1_2  + 2.165143 s_1_7  > -970.079100
t_1_6 - t_2_2 - 1001.997125 s_2_2  + 1.997125 s_2_7  > -955.515789
t_2_6 - t_1_2 - 1002.165143 s_1_2  + 2.165143 s_1_7  > -970.079100
t_2_6 - t_2_2 - 1001.997125 s_2_2  + 1.997125 s_2_7  > -955.515789
t_1_2 - t_1_7 - 1000.000000 s_1_7  > -983.595633
t_1_2 - t_2_7 - 1000.000000 s_2_7  > -978.189900
t_2_2 - t_1_7 - 1000.000000 s_1_7  > -983.595633
t_2_2 - t_2_7 - 1000.000000 s_2_7  > -978.189900
s_1_3 + s_1_1 + 1000 r_1_1_3 >= 2
- s_1_3 - s_1_1 - 1000 r_1_1_3 >= -1001
t_1_3 - t_1_1 + 1000.000000 u_1_1_3 - 2.165143 s_1_1  + 2.165143 s_1_7  + 2000.000000 r_1_1_3 > 31.907500
s_2_3 + s_2_1 + 1000 r_2_1_3 >= 2
- s_2_3 - s_2_1 - 1000 r_2_1_3 >= -1001
t_2_3 - t_2_1 + 1000.000000 u_2_1_3 - 1.997125 s_2_1  + 1.997125 s_2_7  + 2000.000000 r_2_1_3 > 61.865333
s_1_3 + s_1_2 + 1000 r_1_2_3 >= 2
- s_1_3 - s_1_2 - 1000 r_1_2_3 >= -1001
t_1_3 - t_1_2 + 1000.000000 u_1_2_3 - 2.165143 s_1_2  + 2.165143 s_1_7  + 2000.000000 r_1_2_3 > 29.920900
s_2_3 + s_2_2 + 1000 r_2_2_3 >= 2
- s_2_3 - s_2_2 - 1000 r_2_2_3 >= -1001
t_2_3 - t_2_2 + 1000.000000 u_2_2_3 - 1.997125 s_2_2  + 1.997125 s_2_7  + 2000.000000 r_2_2_3 > 44.484211
s_1_3 + s_1_4 + 1000 r_1_3_4 >= 2
- s_1_3 - s_1_4 - 1000 r_1_3_4 >= -1001
t_1_3 - t_1_4 - 1000.000000 u_1_3_4 - 1.589809 s_1_4  + 0.794904 s_1_1  + 0.794904 s_1_2  + 2000.000000 r_1_3_4 > -995.418500
s_2_3 + s_2_4 + 1000 r_2_3_4 >= 2
- s_2_3 - s_2_4 - 1000 r_2_3_4 >= -1001
t_2_3 - t_2_4 - 1000.000000 u_2_3_4 - 1.962262 s_2_4  + 0.981131 s_2_1  + 0.981131 s_2_2  + 2000.000000 r_2_3_4 > -996.516556
s_1_3 + s_1_5 + 1000 r_1_3_5 >= 2
- s_1_3 - s_1_5 - 1000 r_1_3_5 >= -1001
t_1_3 - t_1_5 - 1000.000000 u_1_3_5 - 2.960047 s_1_5  + 0.794904 s_1_1  + 2.165143 s_1_7  + 2000.000000 r_1_3_5 > -986.694600
s_2_3 + s_2_5 + 1000 r_2_3_5 >= 2
- s_2_3 - s_2_5 - 1000 r_2_3_5 >= -1001
t_2_3 - t_2_5 - 1000.000000 u_2_3_5 - 2.978256 s_2_5  + 0.981131 s_2_1  + 1.997125 s_2_7  + 2000.000000 r_2_3_5 > -983.389289
t_1_6 - t_1_3 - 1002.165143 s_1_3  + 2.165143 s_1_7  > -975.526500
t_1_6 - t_2_3 - 1001.997125 s_2_3  + 1.997125 s_2_7  > -968.215711
t_2_6 - t_1_3 - 1002.165143 s_1_3  + 2.165143 s_1_7  > -975.526500
t_2_6 - t_2_3 - 1001.997125 s_2_3  + 1.997125 s_2_7  > -968.215711
t_1_3 - t_1_7 - 1000.000000 s_1_7  > -983.595633
t_1_3 - t_2_7 - 1000.000000 s_2_7  > -978.189900
t_2_3 - t_1_7 - 1000.000000 s_1_7  > -983.595633
t_2_3 - t_2_7 - 1000.000000 s_2_7  > -978.189900
s_1_4 + s_1_3 + 1000 r_1_3_4 >= 2
- s_1_4 - s_1_3 - 1000 r_1_3_4 >= -1001
t_1_4 - t_1_3 + 1000.000000 u_1_3_4 - 2.165143 s_1_3  + 2.165143 s_1_7  + 2000.000000 r_1_3_4 > 24.473500
s_2_4 + s_2_3 + 1000 r_2_3_4 >= 2
- s_2_4 - s_2_3 - 1000 r_2_3_4 >= -1001
t_2_4 - t_2_3 + 1000.000000 u_2_3_4 - 1.997125 s_2_3  + 1.997125 s_2_7  + 2000.000000 r_2_3_4 > 31.784289
s_1_4 + s_1_5 + 1000 r_1_4_5 >= 2
- s_1_4 - s_1_5 - 1000 r_1_4_5 >= -1001
t_1_4 - t_1_5 - 1000.000000 u_1_4_5 - 2.960047 s_1_5  + 0.794904 s_1_1  + 2.165143 s_1_7  + 2000.000000 r_1_4_5 > -986.694600
s_2_4 + s_2_5 + 1000 r_2_4_5 >= 2
- s_2_4 - s_2_5 - 1000 r_2_4_5 >= -1001
t_2_4 - t_2_5 - 1000.000000 u_2_4_5 - 2.978256 s_2_5  + 0.981131 s_2_1  + 1.997125 s_2_7  + 2000.000000 r_2_4_5 > -983.389289
t_1_6 - t_1_4 - 1001.589809 s_1_4  + 0.794904 s_1_1  + 0.794904 s_1_2  > -995.418500
t_1_6 - t_2_4 - 1001.962262 s_2_4  + 0.981131 s_2_1  + 0.981131 s_2_2  > -996.516556
t_2_6 - t_1_4 - 1001.589809 s_1_4  + 0.794904 s_1_1  + 0.794904 s_1_2  > -995.418500
t_2_6 - t_2_4 - 1001.962262 s_2_4  + 0.981131 s_2_1  + 0.981131 s_2_2  > -996.516556
s_1_5 + s_1_2 + 1000 r_1_2_5 >= 2
- s_1_5 - s_1_2 - 1000 r_1_2_5 >= -1001
t_1_5 - t_1_2 + 1000.000000 u_1_2_5 - 2.165143 s_1_2  + 2.165143 s_1_7  + 2000.000000 r_1_2_5 > 29.920900
s_2_5 + s_2_2 + 1000 r_2_2_5 >= 2
- s_2_5 - s_2_2 - 1000 r_2_2_5 >= -1001
t_2_5 - t_2_2 + 1000.000000 u_2_2_5 - 1.997125 s_2_2  + 1.997125 s_2_7  + 2000.000000 r_2_2_5 > 44.484211
s_1_5 + s_1_3 + 1000 r_1_3_5 >= 2
- s_1_5 - s_1_3 - 1000 r_1_3_5 >= -1001
t_1_5 - t_1_3 + 1000.000000 u_1_3_5 - 2.165143 s_1_3  + 2.165143 s_1_7  + 2000.000000 r_1_3_5 > 24.473500
s_2_5 + s_2_3 + 1000 r_2_3_5 >= 2
- s_2_5 - s_2_3 - 1000 r_2_3_5 >= -1001
t_2_5 - t_2_3 + 1000.000000 u_2_3_5 - 1.997125 s_2_3  + 1.997125 s_2_7  + 2000.000000 r_2_3_5 > 31.784289
s_1_5 + s_1_4 + 1000 r_1_4_5 >= 2
- s_1_5 - s_1_4 - 1000 r_1_4_5 >= -1001
t_1_5 - t_1_4 + 1000.000000 u_1_4_5 - 1.589809 s_1_4  + 0.794904 s_1_1  + 0.794904 s_1_2  + 2000.000000 r_1_4_5 > 4.581500
s_2_5 + s_2_4 + 1000 r_2_4_5 >= 2
- s_2_5 - s_2_4 - 1000 r_2_4_5 >= -1001
t_2_5 - t_2_4 + 1000.000000 u_2_4_5 - 1.962262 s_2_4  + 0.981131 s_2_1  + 0.981131 s_2_2  + 2000.000000 r_2_4_5 > 3.483444
t_1_6 - t_1_5 - 1002.960047 s_1_5  + 0.794904 s_1_1  + 2.165143 s_1_7  > -986.694600
t_1_6 - t_2_5 - 1002.978256 s_2_5  + 0.981131 s_2_1  + 1.997125 s_2_7  > -983.389289
t_2_6 - t_1_5 - 1002.960047 s_1_5  + 0.794904 s_1_1  + 2.165143 s_1_7  > -986.694600
t_2_6 - t_2_5 - 1002.978256 s_2_5  + 0.981131 s_2_1  + 1.997125 s_2_7  > -983.389289
t_1_5 - t_1_7 - 1000.000000 s_1_7  > -983.595633
t_1_5 - t_2_7 - 1000.000000 s_2_7  > -978.189900
t_2_5 - t_1_7 - 1000.000000 s_1_7  > -983.595633
t_2_5 - t_2_7 - 1000.000000 s_2_7  > -978.189900
Binary
s_1_1
s_2_1
s_1_2
s_2_2
s_1_3
s_2_3
s_1_4
s_2_4
s_1_5
s_2_5
s_1_6
s_2_6
s_1_7
s_2_7
u_1_1_2
r_1_1_2
u_2_1_2
r_2_1_2
u_1_1_3
r_1_1_3
u_2_1_3
r_2_1_3
u_1_2_3
r_1_2_3
u_2_2_3
r_2_2_3
u_1_2_5
r_1_2_5
u_2_2_5
r_2_2_5
u_1_3_4
r_1_3_4
u_2_3_4
r_2_3_4
u_1_3_5
r_1_3_5
u_2_3_5
r_2_3_5
u_1_4_5
r_1_4_5
u_2_4_5
r_2_4_5

End
